c generated by sgen3tocnf
c nLits = 612
c actual nVars = 97
c Command: sgen3tocnf 024 0 2 24 97 4 2 0 /dev/null
p cnf 97 204
-5 -57 -69 0
-5 -57 -89 0
-5 -69 -89 0
-57 -69 -89 0
-17 -29 -53 0
-17 -29 -77 0
-17 -53 -77 0
-29 -53 -77 0
-37 -41 -65 0
-37 -41 -70 0
-37 -65 -70 0
-41 -65 -70 0
-1 -13 -21 0
-1 -13 -93 0
-1 -21 -93 0
-13 -21 -93 0
-9 -58 -73 0
-9 -58 -85 0
-9 -73 -85 0
-58 -73 -85 0
-18 -38 -61 0
-18 -38 -94 0
-18 -61 -94 0
-38 -61 -94 0
-2 -25 -74 0
-2 -25 -90 0
-2 -74 -90 0
-25 -74 -90 0
-22 -49 -59 0
-22 -49 -62 0
-22 -59 -62 0
-49 -59 -62 0
-23 -39 -54 0
-23 -39 -75 0
-23 -54 -75 0
-39 -54 -75 0
-50 -66 -78 0
-50 -66 -86 0
-50 -78 -86 0
-66 -78 -86 0
-6 -10 -24 0
-6 -10 -79 0
-6 -24 -79 0
-10 -24 -79 0
-19 -33 -42 0
-19 -33 -87 0
-19 -42 -87 0
-33 -42 -87 0
-7 -14 -26 0
-7 -14 -51 0
-7 -26 -51 0
-14 -26 -51 0
-27 -34 -80 0
-27 -34 -81 0
-27 -80 -81 0
-34 -80 -81 0
-8 -35 -45 0
-8 -35 -67 0
-8 -45 -67 0
-35 -45 -67 0
-15 -36 -63 0
-15 -36 -76 0
-15 -63 -76 0
-36 -63 -76 0
-3 -11 -20 0
-3 -11 -71 0
-3 -20 -71 0
-11 -20 -71 0
-40 -52 -82 0
-40 -52 -91 0
-40 -82 -91 0
-52 -82 -91 0
-16 -30 -46 0
-16 -30 -60 0
-16 -46 -60 0
-30 -46 -60 0
-28 -47 -72 0
-28 -47 -95 0
-28 -72 -95 0
-47 -72 -95 0
-31 -83 -88 0
-31 -83 -96 0
-31 -88 -96 0
-83 -88 -96 0
-43 -48 -55 0
-43 -48 -84 0
-43 -55 -84 0
-48 -55 -84 0
-12 -56 -68 0
-12 -56 -92 0
-12 -68 -92 0
-56 -68 -92 0
-4 -32 -44 0
-4 -32 -64 0
-4 -32 -97 0
-4 -44 -64 0
-4 -44 -97 0
-4 -64 -97 0
-32 -44 -64 0
-32 -44 -97 0
-32 -64 -97 0
-44 -64 -97 0
1 2 3 0
1 2 4 0
1 3 4 0
2 3 4 0
5 6 7 0
5 6 8 0
5 6 97 0
5 7 8 0
5 7 97 0
5 8 97 0
6 7 8 0
6 7 97 0
6 8 97 0
7 8 97 0
9 10 11 0
9 10 12 0
9 11 12 0
10 11 12 0
13 14 15 0
13 14 16 0
13 15 16 0
14 15 16 0
17 18 19 0
17 18 20 0
17 19 20 0
18 19 20 0
21 22 23 0
21 22 24 0
21 23 24 0
22 23 24 0
25 26 27 0
25 26 28 0
25 27 28 0
26 27 28 0
29 30 31 0
29 30 32 0
29 31 32 0
30 31 32 0
33 34 35 0
33 34 36 0
33 35 36 0
34 35 36 0
37 38 39 0
37 38 40 0
37 39 40 0
38 39 40 0
41 42 43 0
41 42 44 0
41 43 44 0
42 43 44 0
45 46 47 0
45 46 48 0
45 47 48 0
46 47 48 0
49 50 51 0
49 50 52 0
49 51 52 0
50 51 52 0
53 54 55 0
53 54 56 0
53 55 56 0
54 55 56 0
57 58 59 0
57 58 60 0
57 59 60 0
58 59 60 0
61 62 63 0
61 62 64 0
61 63 64 0
62 63 64 0
65 66 67 0
65 66 68 0
65 67 68 0
66 67 68 0
69 70 71 0
69 70 72 0
69 71 72 0
70 71 72 0
73 74 75 0
73 74 76 0
73 75 76 0
74 75 76 0
77 78 79 0
77 78 80 0
77 79 80 0
78 79 80 0
81 82 83 0
81 82 84 0
81 83 84 0
82 83 84 0
85 86 87 0
85 86 88 0
85 87 88 0
86 87 88 0
89 90 91 0
89 90 92 0
89 91 92 0
90 91 92 0
93 94 95 0
93 94 96 0
93 95 96 0
94 95 96 0
